#=======================================================
# FHI-aims file: C:\Users\Merlin Warner-Huish\PycharmProjects\Merlin\Nuffield\PythonFiles\disp_001/geometry.in
# Created using the Atomic Simulation Environment (ASE)
# Wed Aug 16 14:02:33 2023
#=======================================================
lattice_vector 0.0000000000000000 4.1210000000000004 4.1210000000000004 
lattice_vector 4.1210000000000004 0.0000000000000000 4.1210000000000004 
lattice_vector 4.1210000000000004 4.1210000000000004 0.0000000000000000 
atom 0.0000000000000000 0.0070710678118655 0.0070710678118655 Al
atom 0.0000000000000002 2.0605000000000002 2.0605000000000002 Al
atom 2.0605000000000002 0.0000000000000002 2.0605000000000002 Al
atom 2.0605000000000002 2.0605000000000002 4.1210000000000004 Al
atom 2.0605000000000007 2.0605000000000007 -0.0000000000000000 Al
atom 2.0605000000000007 4.1210000000000013 2.0605000000000002 Al
atom 4.1210000000000013 2.0605000000000007 2.0605000000000002 Al
atom 4.1210000000000013 4.1210000000000013 4.1210000000000004 Al
